Problem:    
Rows:       7
Columns:    10 (10 integer, 0 binary)
Non-zeros:  20
Status:     INTEGER OPTIMAL
Objective:  OBJ = 8600 (MINimum)

   No.   Row name        Activity     Lower bound   Upper bound
------ ------------    ------------- ------------- -------------
     1 Sum_of_Products_into_Bar_1
                                 500           500               
     2 Sum_of_Products_into_Bar_2
                                 900           900               
     3 Sum_of_Products_into_Bar_3
                                1800          1800               
     4 Sum_of_Products_into_Bar_4
                                 200           200               
     5 Sum_of_Products_into_Bar_5
                                 700           700               
     6 Sum_of_Products_out_of_warehouse_A
                                1000                        1000 
     7 Sum_of_Products_out_of_warehouse_B
                                3100                        4000 

   No. Column name       Activity     Lower bound   Upper bound
------ ------------    ------------- ------------- -------------
     1 Route_A_1    *            300             0               
     2 Route_A_2    *              0             0               
     3 Route_A_3    *              0             0               
     4 Route_A_4    *              0             0               
     5 Route_A_5    *            700             0               
     6 Route_B_1    *            200             0               
     7 Route_B_2    *            900             0               
     8 Route_B_3    *           1800             0               
     9 Route_B_4    *            200             0               
    10 Route_B_5    *              0             0               

Integer feasibility conditions:

KKT.PE: max.abs.err = 0.00e+00 on row 0
        max.rel.err = 0.00e+00 on row 0
        High quality

KKT.PB: max.abs.err = 0.00e+00 on row 0
        max.rel.err = 0.00e+00 on row 0
        High quality

End of output
